p td 22 135
2 1
3 2
4 3
5 4
5 3
6 3
6 1
6 5
6 2
7 4
7 5
7 2
7 3
8 5
8 3
8 6
8 2
8 1
8 4
9 4
9 8
9 6
9 7
9 5
9 2
10 7
10 1
10 2
10 5
11 5
11 10
11 1
11 2
11 7
12 6
12 5
12 7
12 8
12 10
12 11
13 10
13 6
13 8
13 2
13 12
13 5
14 2
14 12
14 11
14 8
14 1
14 4
14 9
14 7
15 10
15 4
15 8
15 11
15 6
15 5
15 3
15 12
16 11
16 6
16 1
16 8
16 5
16 13
16 2
16 15
17 12
17 11
17 3
17 16
17 9
17 5
18 11
18 16
18 9
18 1
18 14
18 12
18 17
18 15
18 2
18 13
18 7
18 10
18 3
19 15
19 18
19 5
19 10
19 9
19 12
19 4
19 17
19 6
19 3
20 10
20 1
20 8
20 7
20 6
20 12
20 13
20 17
20 2
20 5
21 8
21 5
21 18
21 14
21 16
21 15
21 2
21 17
21 9
21 19
22 5
22 18
22 19
22 13
22 2
22 4
22 17
22 9
22 3
22 16
22 7
22 1
22 12
22 8
22 21
22 6
